
ASes= { 1, 2, 3, 4, 5, 6, 7, 8, 9, 10, 11 } ;


Objects= { 1, 2, 3, 4, 5, 6, 7, 8, 9, 10, 11, 12, 13, 14, 15, 16, 17, 18, 19, 20, 21, 22, 23, 24, 25, 26, 27, 28, 29, 30, 31, 32, 33, 34, 35, 36, 37, 38, 39, 40, 41, 42, 43, 44, 45, 46, 47, 48, 49, 50, 51, 52, 53, 54, 55, 56, 57, 58, 59, 60, 61, 62, 63, 64, 65, 66, 67, 68, 69, 70, 71, 72, 73, 74, 75, 76, 77, 78, 79, 80, 81, 82, 83, 84, 85, 86, 87, 88, 89, 90, 91, 92, 93, 94, 95, 96, 97, 98, 99, 100 } ;


QualityLevels= { 0, 1, 2, 3, 4, 5 } ;

Arcs = {<2,1,490000>, <1,2,490000>, <11,1,490000>, <1,11,490000>, <11,2,490000>, <2,11,490000>, <11,10,490000>, <10,11,490000>, <3,2,490000>, <2,3,490000>, <4,3,490000>, <3,4,490000>, <5,4,490000>, <4,5,490000>, <6,5,490000>, <5,6,490000>, <7,6,490000>, <6,7,490000>, <8,4,490000>, <4,8,490000>, <8,7,490000>, <7,8,490000>, <9,3,490000>, <3,9,490000>, <9,8,490000>, <8,9,490000>, <10,9,490000>, <9,10,490000>};


RatePerQuality= [ 0  300  700  1500  2500  3500 ] ;


CacheSpacePerQuality= [ 10000  11.25  26.25  56.25  93.75  131.25 ] ;


UtilityPerQuality= [ 0  0.2  0.4  0.6  0.8  1 ] ;


ObjectsPublishedByProducers=[ [ 0  0  0  0  0  0  0  1  0  0  0 ]  [ 0  0  0  0  0  0  0  1  0  0  0 ]  [ 0  0  0  0  0  0  0  1  0  0  0 ]  [ 0  0  0  0  0  0  0  1  0  0  0 ]  [ 0  0  0  0  0  0  0  1  0  0  0 ]  [ 0  0  0  0  0  0  0  1  0  0  0 ]  [ 0  0  0  0  0  0  0  1  0  0  0 ]  [ 0  0  0  0  0  0  0  1  0  0  0 ]  [ 0  0  0  0  0  0  0  1  0  0  0 ]  [ 0  0  0  0  0  0  0  1  0  0  0 ]  [ 0  0  0  0  0  0  0  1  0  0  0 ]  [ 0  0  0  0  0  0  0  1  0  0  0 ]  [ 0  0  0  0  0  0  0  1  0  0  0 ]  [ 0  0  0  0  0  0  0  1  0  0  0 ]  [ 0  0  0  0  0  0  0  1  0  0  0 ]  [ 0  0  0  0  0  0  0  1  0  0  0 ]  [ 0  0  0  0  0  0  0  1  0  0  0 ]  [ 0  0  0  0  0  0  0  1  0  0  0 ]  [ 0  0  0  0  0  0  0  1  0  0  0 ]  [ 0  0  0  0  0  0  0  1  0  0  0 ]  [ 0  0  0  0  0  0  0  1  0  0  0 ]  [ 0  0  0  0  0  0  0  1  0  0  0 ]  [ 0  0  0  0  0  0  0  1  0  0  0 ]  [ 0  0  0  0  0  0  0  1  0  0  0 ]  [ 0  0  0  0  0  0  0  1  0  0  0 ]  [ 0  0  0  0  0  0  0  1  0  0  0 ]  [ 0  0  0  0  0  0  0  1  0  0  0 ]  [ 0  0  0  0  0  0  0  1  0  0  0 ]  [ 0  0  0  0  0  0  0  1  0  0  0 ]  [ 0  0  0  0  0  0  0  1  0  0  0 ]  [ 0  0  0  0  0  0  0  1  0  0  0 ]  [ 0  0  0  0  0  0  0  1  0  0  0 ]  [ 0  0  0  0  0  0  0  1  0  0  0 ]  [ 0  0  0  0  0  0  0  1  0  0  0 ]  [ 0  0  0  0  0  0  0  1  0  0  0 ]  [ 0  0  0  0  0  0  0  1  0  0  0 ]  [ 0  0  0  0  0  0  0  1  0  0  0 ]  [ 0  0  0  0  0  0  0  1  0  0  0 ]  [ 0  0  0  0  0  0  0  1  0  0  0 ]  [ 0  0  0  0  0  0  0  1  0  0  0 ]  [ 0  0  0  0  0  0  0  1  0  0  0 ]  [ 0  0  0  0  0  0  0  1  0  0  0 ]  [ 0  0  0  0  0  0  0  1  0  0  0 ]  [ 0  0  0  0  0  0  0  1  0  0  0 ]  [ 0  0  0  0  0  0  0  1  0  0  0 ]  [ 0  0  0  0  0  0  0  1  0  0  0 ]  [ 0  0  0  0  0  0  0  1  0  0  0 ]  [ 0  0  0  0  0  0  0  1  0  0  0 ]  [ 0  0  0  0  0  0  0  1  0  0  0 ]  [ 0  0  0  0  0  0  0  1  0  0  0 ]  [ 0  0  0  0  0  0  0  1  0  0  0 ]  [ 0  0  0  0  0  0  0  1  0  0  0 ]  [ 0  0  0  0  0  0  0  1  0  0  0 ]  [ 0  0  0  0  0  0  0  1  0  0  0 ]  [ 0  0  0  0  0  0  0  1  0  0  0 ]  [ 0  0  0  0  0  0  0  1  0  0  0 ]  [ 0  0  0  0  0  0  0  1  0  0  0 ]  [ 0  0  0  0  0  0  0  1  0  0  0 ]  [ 0  0  0  0  0  0  0  1  0  0  0 ]  [ 0  0  0  0  0  0  0  1  0  0  0 ]  [ 0  0  0  0  0  0  0  1  0  0  0 ]  [ 0  0  0  0  0  0  0  1  0  0  0 ]  [ 0  0  0  0  0  0  0  1  0  0  0 ]  [ 0  0  0  0  0  0  0  1  0  0  0 ]  [ 0  0  0  0  0  0  0  1  0  0  0 ]  [ 0  0  0  0  0  0  0  1  0  0  0 ]  [ 0  0  0  0  0  0  0  1  0  0  0 ]  [ 0  0  0  0  0  0  0  1  0  0  0 ]  [ 0  0  0  0  0  0  0  1  0  0  0 ]  [ 0  0  0  0  0  0  0  1  0  0  0 ]  [ 0  0  0  0  0  0  0  1  0  0  0 ]  [ 0  0  0  0  0  0  0  1  0  0  0 ]  [ 0  0  0  0  0  0  0  1  0  0  0 ]  [ 0  0  0  0  0  0  0  1  0  0  0 ]  [ 0  0  0  0  0  0  0  1  0  0  0 ]  [ 0  0  0  0  0  0  0  1  0  0  0 ]  [ 0  0  0  0  0  0  0  1  0  0  0 ]  [ 0  0  0  0  0  0  0  1  0  0  0 ]  [ 0  0  0  0  0  0  0  1  0  0  0 ]  [ 0  0  0  0  0  0  0  1  0  0  0 ]  [ 0  0  0  0  0  0  0  1  0  0  0 ]  [ 0  0  0  0  0  0  0  1  0  0  0 ]  [ 0  0  0  0  0  0  0  1  0  0  0 ]  [ 0  0  0  0  0  0  0  1  0  0  0 ]  [ 0  0  0  0  0  0  0  1  0  0  0 ]  [ 0  0  0  0  0  0  0  1  0  0  0 ]  [ 0  0  0  0  0  0  0  1  0  0  0 ]  [ 0  0  0  0  0  0  0  1  0  0  0 ]  [ 0  0  0  0  0  0  0  1  0  0  0 ]  [ 0  0  0  0  0  0  0  1  0  0  0 ]  [ 0  0  0  0  0  0  0  1  0  0  0 ]  [ 0  0  0  0  0  0  0  1  0  0  0 ]  [ 0  0  0  0  0  0  0  1  0  0  0 ]  [ 0  0  0  0  0  0  0  1  0  0  0 ]  [ 0  0  0  0  0  0  0  1  0  0  0 ]  [ 0  0  0  0  0  0  0  1  0  0  0 ]  [ 0  0  0  0  0  0  0  1  0  0  0 ]  [ 0  0  0  0  0  0  0  1  0  0  0 ]  [ 0  0  0  0  0  0  0  1  0  0  0 ]  [ 0  0  0  0  0  0  0  1  0  0  0 ] ];

ObjRequests = {  <1,5,540>, <2,5,312>, <3,5,18>, <4,5,43>, <5,5,3>, <6,5,2>, <7,5,116>, <8,5,71>, <9,5,18>, <10,5,48>, <11,5,45>, <12,5,20>, <13,5,14>, <14,5,2>, <15,5,40>, <16,5,6>, <17,5,21>, <18,5,37>, <19,5,12>, <20,5,22>, <21,5,42>, <22,5,24>, <23,5,45>, <24,5,10>, <25,5,41>, <26,5,22>, <27,5,2>, <28,5,26>, <29,5,13>, <30,5,42>, <31,5,2>, <32,5,25>, <33,5,11>, <34,5,3>, <35,5,9>, <36,5,8>, <37,5,3>, <38,5,4>, <39,5,33>, <40,5,15>, <41,5,22>, <42,5,4>, <43,5,12>, <44,5,12>, <45,5,7>, <46,5,11>, <47,5,2>, <48,5,11>, <49,5,10>, <50,5,7>, <51,5,20>, <52,5,1>, <53,5,2>, <54,5,11>, <55,5,4>, <57,5,14>, <58,5,30>, <59,5,2>, <60,5,7>, <61,5,4>, <62,5,1>, <63,5,5>, <64,5,4>, <65,5,3>, <66,5,3>, <67,5,7>, <68,5,8>, <69,5,2>, <70,5,1>, <71,5,5>, <72,5,1>, <73,5,2>, <74,5,4>, <75,5,2>, <76,5,6>, <77,5,1>, <78,5,2>, <79,5,1>, <80,5,13>, <81,5,12>, <82,5,4>, <84,5,10>, <85,5,2>, <86,5,3>, <89,5,3>, <90,5,3>, <91,5,7>, <92,5,3>, <93,5,4>, <94,5,11>, <95,5,1>, <96,5,1>, <97,5,2>, <98,5,2>, <99,5,9>, <1,6,85>, <2,6,201>, <3,6,14>, <4,6,39>, <5,6,70>, <6,6,103>, <7,6,51>, <8,6,14>, <9,6,73>, <10,6,121>, <11,6,21>, <12,6,73>, <13,6,8>, <14,6,9>, <15,6,63>, <16,6,108>, <17,6,41>, <18,6,27>, <19,6,48>, <20,6,19>, <21,6,15>, <22,6,14>, <23,6,48>, <24,6,38>, <25,6,7>, <26,6,35>, <27,6,35>, <28,6,8>, <29,6,3>, <30,6,8>, <31,6,9>, <32,6,4>, <33,6,12>, <34,6,11>, <35,6,17>, <36,6,9>, <37,6,16>, <38,6,12>, <40,6,6>, <41,6,6>, <42,6,1>, <43,6,30>, <44,6,7>, <45,6,4>, <46,6,27>, <47,6,2>, <48,6,10>, <50,6,26>, <51,6,3>, <52,6,23>, <53,6,11>, <54,6,16>, <55,6,5>, <56,6,10>, <57,6,3>, <58,6,5>, <59,6,18>, <60,6,3>, <61,6,6>, <62,6,2>, <63,6,7>, <64,6,1>, <65,6,6>, <66,6,15>, <67,6,4>, <68,6,2>, <69,6,6>, <70,6,1>, <71,6,1>, <72,6,12>, <73,6,6>, <74,6,6>, <75,6,22>, <76,6,3>, <77,6,5>, <78,6,24>, <79,6,12>, <80,6,17>, <81,6,5>, <82,6,2>, <83,6,10>, <84,6,10>, <85,6,4>, <86,6,1>, <87,6,9>, <89,6,3>, <90,6,3>, <91,6,16>, <92,6,14>, <93,6,1>, <94,6,7>, <95,6,6>, <96,6,7>, <97,6,13>, <99,6,1>, <1,7,371>, <2,7,18>, <3,7,183>, <4,7,57>, <5,7,68>, <6,7,14>, <7,7,49>, <8,7,13>, <9,7,49>, <10,7,4>, <11,7,35>, <12,7,49>, <13,7,103>, <14,7,40>, <15,7,29>, <16,7,16>, <17,7,38>, <18,7,6>, <19,7,14>, <20,7,41>, <21,7,11>, <22,7,16>, <23,7,4>, <24,7,13>, <25,7,17>, <26,7,7>, <27,7,26>, <28,7,1>, <29,7,11>, <30,7,12>, <31,7,34>, <32,7,25>, <33,7,22>, <34,7,6>, <35,7,18>, <36,7,2>, <37,7,6>, <38,7,19>, <39,7,10>, <40,7,29>, <41,7,9>, <42,7,9>, <43,7,2>, <44,7,13>, <45,7,17>, <46,7,3>, <47,7,9>, <48,7,1>, <49,7,8>, <50,7,6>, <51,7,17>, <52,7,6>, <53,7,3>, <54,7,1>, <55,7,10>, <56,7,21>, <57,7,7>, <58,7,1>, <59,7,14>, <61,7,6>, <62,7,3>, <63,7,14>, <64,7,12>, <65,7,20>, <66,7,7>, <67,7,13>, <68,7,25>, <69,7,8>, <70,7,19>, <71,7,3>, <72,7,20>, <75,7,6>, <76,7,8>, <77,7,4>, <78,7,1>, <79,7,2>, <81,7,6>, <82,7,13>, <83,7,7>, <84,7,1>, <85,7,11>, <86,7,9>, <87,7,8>, <88,7,4>, <89,7,2>, <90,7,4>, <91,7,2>, <92,7,1>, <93,7,12>, <94,7,3>, <95,7,9>, <96,7,5>, <97,7,5>, <98,7,5>, <99,7,15>, <100,7,9>, <1,1,880>, <2,1,176>, <3,1,560>, <4,1,369>, <5,1,61>, <6,1,218>, <7,1,54>, <8,1,75>, <9,1,98>, <10,1,38>, <11,1,111>, <12,1,71>, <13,1,12>, <14,1,75>, <15,1,29>, <16,1,9>, <17,1,3>, <18,1,23>, <19,1,46>, <20,1,10>, <21,1,22>, <22,1,41>, <23,1,11>, <24,1,20>, <25,1,18>, <26,1,12>, <27,1,17>, <28,1,10>, <29,1,49>, <30,1,23>, <31,1,20>, <32,1,14>, <33,1,2>, <34,1,11>, <35,1,12>, <36,1,7>, <37,1,19>, <38,1,15>, <39,1,6>, <40,1,4>, <41,1,10>, <42,1,48>, <43,1,7>, <44,1,10>, <45,1,8>, <46,1,9>, <47,1,6>, <48,1,4>, <49,1,3>, <50,1,9>, <51,1,6>, <52,1,6>, <53,1,20>, <54,1,1>, <55,1,14>, <56,1,4>, <57,1,16>, <58,1,1>, <59,1,3>, <60,1,14>, <61,1,15>, <62,1,6>, <63,1,9>, <64,1,1>, <65,1,7>, <66,1,2>, <67,1,14>, <68,1,5>, <69,1,5>, <70,1,3>, <71,1,14>, <72,1,11>, <73,1,11>, <74,1,3>, <75,1,5>, <76,1,13>, <77,1,14>, <78,1,5>, <79,1,6>, <80,1,6>, <81,1,3>, <82,1,6>, <83,1,7>, <84,1,3>, <85,1,5>, <86,1,7>, <87,1,1>, <88,1,5>, <89,1,8>, <90,1,17>, <91,1,6>, <92,1,1>, <93,1,11>, <94,1,5>, <95,1,6>, <96,1,13>, <97,1,1>, <98,1,11>, <99,1,3>, <100,1,12>, <1,10,446>, <2,10,495>, <3,10,10>, <4,10,68>, <5,10,261>, <6,10,75>, <7,10,78>, <8,10,110>, <9,10,7>, <10,10,3>, <11,10,13>, <12,10,2>, <13,10,47>, <14,10,59>, <15,10,10>, <16,10,15>, <17,10,26>, <18,10,43>, <19,10,11>, <20,10,26>, <21,10,17>, <22,10,9>, <23,10,7>, <24,10,14>, <25,10,4>, <26,10,12>, <27,10,14>, <28,10,23>, <29,10,8>, <30,10,8>, <31,10,7>, <32,10,1>, <33,10,20>, <34,10,32>, <35,10,22>, <36,10,20>, <37,10,15>, <38,10,8>, <39,10,7>, <40,10,15>, <41,10,2>, <42,10,4>, <43,10,22>, <44,10,3>, <45,10,9>, <46,10,4>, <47,10,20>, <48,10,18>, <49,10,20>, <50,10,3>, <51,10,12>, <52,10,9>, <53,10,2>, <54,10,6>, <55,10,6>, <56,10,3>, <57,10,7>, <58,10,16>, <59,10,3>, <60,10,6>, <61,10,2>, <62,10,17>, <63,10,3>, <64,10,19>, <65,10,5>, <66,10,9>, <67,10,1>, <68,10,5>, <69,10,7>, <70,10,9>, <71,10,22>, <72,10,4>, <73,10,16>, <74,10,13>, <75,10,1>, <77,10,7>, <78,10,1>, <79,10,6>, <81,10,7>, <82,10,7>, <83,10,2>, <84,10,5>, <85,10,5>, <86,10,3>, <87,10,3>, <88,10,20>, <89,10,10>, <91,10,1>, <92,10,5>, <93,10,3>, <94,10,4>, <95,10,10>, <96,10,2>, <97,10,1>, <98,10,1>, <99,10,2>, <100,10,3> };

MaxCacheStorageAtSingleAS= [ 131.25  131.25  131.25  131.25  131.25  131.25  131.25  131.25  131.25  131.25  131.25 ] ;

MaxCacheStorage = 1443.75 ;
SolutionGap = 0.01 ;
